(set-logic QF_NRA)
(set-info :source | KeYmaera example: binary_driver-2007-10-09, node 3668 For more info see: No further information available.|)
(set-info :smt-lib-version 2.0)
(declare-fun v () Real)
(declare-fun zuscore1dollarskuscore0 () Real)
(declare-fun d () Real)
(declare-fun b () Real)
(declare-fun ep () Real)
(declare-fun duscore1dollarskuscore0 () Real)
(declare-fun m () Real)
(declare-fun z () Real)
(declare-fun muscore1dollarskuscore0 () Real)
(declare-fun amax () Real)
(declare-fun vuscore1dollarskuscore0 () Real)
(assert (not (=> (and (and (and (and (and (and (and (and (and (>= zuscore1dollarskuscore0 muscore1dollarskuscore0) (<= (- (* vuscore1dollarskuscore0 vuscore1dollarskuscore0) (* duscore1dollarskuscore0 duscore1dollarskuscore0)) (* (* 2.0 b) (- muscore1dollarskuscore0 zuscore1dollarskuscore0)))) (>= vuscore1dollarskuscore0 0.0)) (>= duscore1dollarskuscore0 0.0)) (<= (- (* v v) (* d d)) (* (* 2.0 b) (- m z)))) (>= v 0.0)) (> ep 0.0)) (> b 0.0)) (> amax 0.0)) (>= d 0.0)) (<= vuscore1dollarskuscore0 duscore1dollarskuscore0))))
(check-sat)

